p edge 41 117
e 1 7
e 1 10
e 1 11
e 1 15
e 1 19
e 1 21
e 1 22
e 1 26
e 1 28
e 1 29
e 1 33
e 1 36
e 1 39
e 1 40
e 1 41
e 2 4
e 2 5
e 2 10
e 2 11
e 2 12
e 2 13
e 2 14
e 2 16
e 2 17
e 2 18
e 2 21
e 2 22
e 2 26
e 2 28
e 2 29
e 2 30
e 2 31
e 2 32
e 2 34
e 2 35
e 2 36
e 2 37
e 2 38
e 2 41
e 3 4
e 3 5
e 3 7
e 3 16
e 3 18
e 3 19
e 3 23
e 3 24
e 3 26
e 3 28
e 3 30
e 3 31
e 3 32
e 3 33
e 3 34
e 3 36
e 3 38
e 3 39
e 3 41
e 4 8
e 4 9
e 4 15
e 4 27
e 5 8
e 5 9
e 5 15
e 5 25
e 5 27
e 5 40
e 6 8
e 6 12
e 6 13
e 6 19
e 6 21
e 6 22
e 6 23
e 6 30
e 6 33
e 6 36
e 7 8
e 7 9
e 7 13
e 7 14
e 7 17
e 7 20
e 7 27
e 7 37
e 8 16
e 8 18
e 8 26
e 8 28
e 8 32
e 8 34
e 9 16
e 9 18
e 9 19
e 9 24
e 9 28
e 9 31
e 10 20
e 10 23
e 10 24
e 11 20
e 11 25
e 12 15
e 13 15
e 13 25
e 14 15
e 14 19
e 14 24
e 15 30
e 19 20
e 19 25
e 19 27
e 19 35
e 20 21
e 20 22
e 22 25
